benchmarks/VRPTW/TSPTW/solution/n80w60.004.txt.solution
1 32 33 43 59 8 39 11 23 36 6 74 60 31 17 78 38 80 57 73 16 18 27 46 35 30 64 63 25 14 2 66 76 50 71 55 5 28 26 70 77 61 75 20 4 79 67 62 45 48 72 15 22 42 7 21 13 53 10 34 54 44 40 65 56 12 58 49 41 37 9 51 3 29 69 52 24 47 81 19 68 
619
